SPARKNaCl/why3-z3/sparknacl-sign.adb_768_17_precondition2_1.smt2
;; produced by z3_gnatprove.drv ;;
(set-info :smt-lib-version 2.5)
(set-info :source |VC generated by SPARK 2014|)
(set-info :category industrial)
(set-info :status unknown)
;;; generated by SMT-LIB2 driver
;;; SMT-LIB2 driver: bit-vectors, common part
;;; SMT-LIB2: integer arithmetic
(declare-sort tinteger_32B 0)

;; "tinteger_32B'int"
(declare-fun tinteger_32Bqtint (tinteger_32B) Int)

;; "tinteger_32B'axiom"
(assert
  (forall ((i tinteger_32B))
    (and
      (<= (- 2147483648) (tinteger_32Bqtint i))
      (<= (tinteger_32Bqtint i) 2147483647))))

;; "in_range"
(define-fun in_range ((x Int)) Bool
  (and (<= (- 2147483648) x) (<= x 2147483647)))

;; "to_rep"
(define-fun to_rep ((x tinteger_32B)) Int
  (tinteger_32Bqtint x))

;; "of_rep"
(declare-fun of_rep (Int) tinteger_32B)

;; "inversion_axiom"
(assert
  (forall ((x tinteger_32B))
    (! (= (of_rep (to_rep x)) x) :pattern ((to_rep x)) )))

;; "range_axiom"
(assert
  (forall ((x tinteger_32B))
    (! (in_range (to_rep x)) :pattern ((to_rep x)) )))

;; "coerce_axiom"
(assert
  (forall ((x Int))
    (! (=> (in_range x) (= (to_rep (of_rep x)) x)) :pattern ((to_rep
                                                               (of_rep x))) )))

(declare-sort byte 0)

;; "to_rep"
(declare-fun to_rep1 (byte) (_ BitVec 8))

;; "of_rep"
(declare-fun of_rep1 ((_ BitVec 8)) byte)

;; "inversion_axiom"
(assert
  (forall ((x byte)) (! (= (of_rep1 (to_rep1 x)) x) :pattern ((to_rep1 x)) )))

;; "range_axiom"
(assert true)

;; "coerce_axiom"
(assert
  (forall ((x (_ BitVec 8)))
    (! (= (to_rep1 (of_rep1 x)) x) :pattern ((to_rep1 (of_rep1 x))) )))

(declare-sort map1 0)

;; "has_bounds"
(declare-fun has_bounds (map1
  Int
  Int) Bool)

(declare-datatypes ()
  ((t (tqtmk (rec__first tinteger_32B)(rec__last tinteger_32B)))))

;; "mk"
(declare-fun mk (Int
  Int) t)

;; "mk_def"
(assert
  (forall ((f Int) (l Int))
    (! (=>
         (in_range f)
         (=>
           (in_range l)
           (and
             (= (to_rep (rec__first (mk f l))) f)
             (= (to_rep (rec__last (mk f l))) l)))) :pattern ((mk f l)) )))

(declare-datatypes ()
  ((us_t (us_tqtmk (elts map1)(rt t)))))

;; "of_array"
(define-fun of_array ((a map1) (f Int) (l Int)) us_t
  (us_tqtmk a (mk f l)))

(declare-sort gf16_normal_limb 0)

;; "to_rep"
(declare-fun to_rep2 (gf16_normal_limb) (_ BitVec 16))

;; "of_rep"
(declare-fun of_rep2 ((_ BitVec 16)) gf16_normal_limb)

;; "inversion_axiom"
(assert
  (forall ((x gf16_normal_limb))
    (! (= (of_rep2 (to_rep2 x)) x) :pattern ((to_rep2 x)) )))

;; "range_axiom"
(assert true)

;; "coerce_axiom"
(assert
  (forall ((x (_ BitVec 16)))
    (! (= (to_rep2 (of_rep2 x)) x) :pattern ((to_rep2 (of_rep2 x))) )))

(declare-sort map2 0)

;; "has_bounds"
(declare-fun has_bounds1 (map2
  Int
  Int) Bool)

;; "pack_25519"
(declare-fun pack_25519 (map2) map1)

;; "pack_25519__function_guard"
(declare-fun pack_25519__function_guard (map1
  map2) Bool)

(declare-const left map2)

(declare-const right map2)

;; "Assume"
(assert (has_bounds1 left 0 15))

;; "Assume"
(assert (has_bounds1 right 0 15))

;; "o"
(define-fun o () map2
  right)

;; "temp___2741"
(define-fun temp___2741 () map1
  (pack_25519 o))

;; "H"
(assert (pack_25519__function_guard temp___2741 o))

;; "H"
(assert (has_bounds temp___2741 0 31))

;; "pack_25519'result'unused"
(define-fun pack_25519qtresultqtunused () map1
  temp___2741)

;; "o"
(define-fun o1 () us_t
  (of_array temp___2741 0 31))

;; "of_array'result'unused"
(define-fun of_arrayqtresultqtunused () us_t
  o1)

;; "o"
(define-fun o2 () map2
  left)

;; "temp___2739"
(define-fun temp___2739 () map1
  (pack_25519 o2))

;; "H"
(assert (pack_25519__function_guard temp___2739 o2))

;; "H"
(assert (has_bounds temp___2739 0 31))

;; "pack_25519'result'unused"
(define-fun pack_25519qtresultqtunused1 () map1
  temp___2739)

;; "o"
(define-fun o3 () us_t
  (of_array temp___2739 0 31))

;; "of_array'result'unused"
(define-fun of_arrayqtresultqtunused1 () us_t
  o3)

;; Goal "def'vc"
;; File "sparknacl-sign.adb", line 757, characters 0-0
(assert
  (not true))

(check-sat)
